! MP2 6-31g(d) Opt PAL4

*xyz 0 1
C  -1.647   0.862   0.080
C  -0.249   0.942   0.085
C  -2.291  -0.379   0.014
C   0.534  -0.240   0.020
C  -1.535  -1.552  -0.045
C  -0.138  -1.485  -0.042
H  -2.029  -2.513  -0.094
H   0.429  -2.403  -0.097
C   2.039  -0.163  -0.024
H  -2.244   1.761   0.139
N   0.326   2.206   0.176
O   2.688   0.856  -0.222
O   2.744  -1.349   0.167
H   3.684  -1.174   0.121
H  -3.370  -0.431   0.015
H   1.306   2.156  -0.04
H  -0.247   2.906  -0.243
*
