! HF 6-31g(d) PAL4

%paras  
B=2,10,81
end 

*int 0 1
 C      0   0   0     0.000000000000     0.00000000     0.00000000
 C      1   0   0     1.410408792387     0.00000000     0.00000000
 C      1   2   0     1.387629674561   121.46540976     0.00000000
 C      2   1   3     1.418429715822   117.86149259   357.95682680
 C      3   1   2     1.401216550379   120.41314464     1.85928728
 C      5   3   1     1.387728922094   119.18088952   358.56672225
 H      5   3   1     1.086448109445   120.54301814   179.88964476
 H      6   5   3     1.085257810950   120.27815199   180.37435074
 C      4   2   1     1.474525319058   120.29082617   177.88235003
 H      1   2   3     1.088916721971   118.52499331   181.18172947
 N      2   1   3     1.382927159506   119.21307977   183.26061362
 O      9   4   2     1.231295327431   126.25299933   356.29999903
 O      9   4   2     1.361745810407   113.26023456   176.60892359
 H     13   9   4     0.980186199946   104.58659711   179.32147663
 H      3   1   2     1.088000665320   119.35735619   180.54826763
 H     11   2   1     1.014297666448   115.28426224   195.45494424
 H     11   2   1     1.012437828384   115.27373933   333.44819984
 O      9   4   2     {B}               90.00000000    90.00000000
 H     18   9   4     0.957200000000   127.74000000     0.00000000 
 H     18   9   4     0.957200000000   127.74000000   180.00000000  
*
