! MP2 cc-pVDZ Opt PAL4

%geom Scan
D 10 1 3 8 = -70.0, 70.0, 15
end
end

*xyz 0 1
  C   -0.12443124643979     -1.02678522254254     -1.81979317610306
  C    0.51901952209539     -0.11661022116420     -0.95963687900926
  C   -1.42463479757245     -1.48141000368261     -1.54903468868063
  C   -0.13762091059030      0.34481106659697      0.22368134379920
  C   -2.13026238702034     -0.93695941851261     -0.46150338834711
  C   -1.46141449164251     -0.10082505156689      0.44472789828364
  H   -3.16476893217694     -1.23946749443468     -0.26954632783377
  H   -1.92227530794650      0.15185978206530      1.40507924114857
  C    0.68074613834432      0.38079536831346      1.51216289992766
  H    0.38431223520238     -1.33439154558877     -2.74188002659165
  N    1.52282674630289      0.78317330771222     -1.47478285594679
  O    0.20899516533584      0.14062235229003      2.60127268831906
  O    1.99578099108342      0.63852834978130      1.33901008593474
  H    2.13021533345626      0.84153735033339      0.38529980719619
  H   -1.90534222880548     -2.19930051072423     -2.22207585289123
  H    1.06199669838626      1.64029442262473     -1.77896604999850
  H    2.02298859450354      0.38882210841114     -2.27385245665606
*
